B=4;
D=1;
P=6;
S=6;
demands = [1 5 2 3 4 3 ];
capacities = [4 8 10 8 8 2 ];
dist_start = [2 4 5 7 4 8 ];
dist = [4 9 6 5 5 5 5 4 5 3 2 2 10 8 5 9 10 4 9 3 3 1 1 1 4 5 7 10 10 5 5 4 3 2 10 7 ];
